c SaDiCaL SAT Solver
c Copyright (C) 2018 by Armin Biere JKU
c
c Version 00n 481e664a7ffa9a307d3a0dad517daf5dde1989ef
c Compiler Apple clang version 15.0.0 (clang-1500.3.9.4)
c Options gcc -Wall -O3 -DNDEBUG -DNLOG
c proof path 'tests/ph6.prf'
c
c all options have default values
c
c parsing 'tests/ph6.cnf'
c found 'p cnf 42 133' header
c parsed DIMACS in 0.00 seconds
c 
c
c   time      reduced redundant irredundant
c       space  restarts glue     variables
c           level conflicts size   remaining
c
c s 0.00 0.0 0.9 0 1 8 0 1.9 1.9 127 41 98%
c s 0.00 0.0 2.3 0 10 52 0 3.3 3.3 122 40 95%
c s 0.01 0.1 5.0 0 78 773 65 6.0 6.0 116 39 93%
c - 0.03 0.1 5.5 1 142 2024 146 6.5 6.6 116 39 93%
c - 0.04 0.1 5.5 2 186 4102 145 6.5 6.6 116 39 93%
c - 0.05 0.1 5.7 3 249 6425 171 6.6 6.8 116 39 93%
c s 0.06 0.1 5.4 3 298 8645 181 6.3 6.5 110 38 90%
c - 0.06 0.1 5.3 4 301 9038 132 6.3 6.5 110 38 90%
c s 0.06 0.1 5.2 4 312 9320 127 6.2 6.3 104 37 88%
c - 0.07 0.1 5.1 5 346 11945 148 6.0 6.4 104 37 88%
c s 0.07 0.1 5.1 5 352 12622 147 6.0 6.4 98 36 86%
c s 0.07 0.1 4.9 5 356 13356 149 5.9 6.3 93 35 83%
c s 0.07 0.1 4.8 5 356 13602 153 5.8 6.3 87 34 81%
c s 0.07 0.1 4.8 5 359 14134 147 5.7 6.3 82 33 79%
c s 0.07 0.1 4.7 5 359 14365 147 5.6 6.2 77 32 76%
c - 0.07 0.1 4.6 6 362 15220 121 5.5 6.1 77 31 74%
c s 0.07 0.1 4.6 6 362 15220 113 5.5 6.1 73 31 74%
c s 0.07 0.1 4.5 6 362 15454 112 5.4 6.0 70 30 71%
c s 0.07 0.1 4.4 6 367 16082 53 5.3 5.9 54 24 57%
c s 0.07 0.1 4.4 6 367 16083 48 5.3 5.9 50 23 55%
c
c   time      reduced    redundant irredundant
c       space   restarts       glue    variables
c           level    conflicts     size  remaining
c
c s 0.07 0.1 4.4 6 367 16084 45 5.3 5.9 46 22 52%
c s 0.07 0.1 4.3 6 367 16085 43 5.3 5.9 43 21 50%
c s 0.07 0.1 4.3 6 367 16086 6 5.3 5.9 14 9 21%
c s 0.07 0.1 4.3 6 367 16087 6 5.3 5.9 12 8 19%
c 0 0.07 0.1 4.3 6 367 16089 6 5.3 5.9 12 0 0%
c
s UNSATISFIABLE
c
c simplifications:            18         894  conflicts/simplification  100%
c reductions:                  6        2682  conflicts/reduction       100%
c restarts:                  367          44  conflicts/restart         100%
c conflicts:               16089      216233  conflicts/sec              90%
c decisions:                2570       34540  decisions/sec              54%
c propagations:           365062         4.9  millions/sec               91%
c
c pure:                        0           0% of look-aheads
c look-ahead:               2570         100% of outer decisions         54%
c pruned:                    434           3% of outer conflicts          2%
c generated reducts:        2618          17% satisfiable
c average size:               79          53% of all clauses
c pruning failed:           2184          83% per reduct
c filter checks:           81693          37% of outer satisfied clauses
c average filtered:          5.9           7% per reduct
c assumed literals:       125624         1.5  per filter check
c
c collected clauses:        0.03 MB       98% of allocated clauses        1%
c allocated clauses:        0.03 MB       10% of allocated memory         1%
c maximum heap:             0.06 MB        0% of resident set size       60%
c
c looking:                  0.00 sec       1% of process time
c filtering:                0.03 sec      35% of process time
c pruning:                  0.07 sec      95% of process time
c simplifying:              0.00 sec       0% of process time
c
c resident set size:     1152.00 MB
c total process time:       0.07 sec
